instances/intermedia/instancia_intermedia.txt
10 6 6

5 19 36 36 34 5 41 29 40 19 46 29 14 14 35 32 42 46 47 26 49 48 6 27 23 22 39 19 26 27 23 21 13 11 22 25 
46 32 18 35 20 23 42 22 25 19 15 6 13 29 43 12 20 33 50 31 40 7 5 46 11 47 49 23 16 25 35 27 14 28 7 26 
18 47 12 40 23 39 23 22 42 45 36 16 39 35 20 25 23 15 20 20 20 39 29 45 40 9 15 5 35 28 50 30 5 14 49 31 
41 50 15 39 29 48 35 45 43 27 9 27 24 21 21 22 33 32 21 23 23 33 20 24 40 46 26 48 50 13 16 15 42 6 29 34 
31 33 29 7 47 24 22 32 18 27 31 29 13 24 40 7 18 21 26 18 25 32 46 5 29 45 48 33 17 22 22 10 18 14 29 39 
11 49 19 48 45 45 13 13 47 18 50 46 22 21 28 5 34 48 49 48 19 10 47 32 46 5 24 26 46 43 32 48 35 16 17 47 
21 11 11 48 36 32 50 40 46 43 5 30 12 27 43 10 29 29 41 43 34 23 46 15 37 43 42 5 11 16 11 37 16 45 16 21 
42 15 11 23 12 34 6 18 25 16 8 26 13 9 23 30 10 48 35 14 7 37 13 35 43 21 39 38 16 42 47 35 38 39 30 23 
10 36 30 23 24 15 31 35 7 46 34 41 46 19 33 17 29 16 48 32 23 31 19 28 44 46 19 37 28 46 16 46 21 24 18 7 
21 5 25 48 29 25 14 39 49 42 9 23 43 33 43 35 9 28 44 10 37 29 18 40 21 8 10 23 33 16 22 22 29 18 40 24 

75 162 149 23 165 90 69 121 59 177 87 83 154 152 60 67 134 113 157 91 72 44 59 131 158 57 64 131 80 150 179 112 23 181 36 154 
67 157 112 26 185 19 100 36 187 147 85 175 16 18 32 29 18 80 17 24 97 22 156 150 155 129 120 42 42 176 178 115 64 63 40 126 
87 182 47 117 125 15 184 109 103 141 118 176 157 47 120 120 21 58 28 118 128 106 17 14 38 93 88 60 138 20 197 110 152 99 193 22 
122 20 82 15 161 180 158 58 131 17 162 58 162 179 18 194 188 54 111 13 90 35 193 142 185 58 145 142 101 135 81 62 16 198 47 40 
82 24 62 169 167 197 24 164 18 64 71 193 120 16 155 122 169 101 116 32 176 77 60 135 74 188 105 105 184 83 128 109 155 77 141 82 
118 126 159 48 42 148 82 31 182 52 106 100 169 91 22 195 60 135 139 182 103 136 19 87 126 12 175 40 164 151 105 155 95 176 63 70 
46 25 40 70 74 170 83 154 103 198 47 14 18 21 13 38 45 36 70 83 158 137 11 50 70 35 175 68 86 183 128 32 18 120 196 100 
67 154 183 104 164 75 127 157 23 148 65 102 192 187 82 125 118 107 170 97 17 35 120 17 34 182 188 101 51 95 85 108 25 59 94 58 
125 58 96 141 161 194 130 84 173 157 59 95 192 24 120 53 54 104 45 83 89 113 10 189 125 126 65 17 70 150 105 119 94 144 100 53 
105 96 135 41 99 104 130 195 175 99 197 96 83 31 193 12 124 74 60 20 110 43 183 19 97 34 28 118 80 25 103 104 107 41 144 72 
